NAME: random16
TYPE: TSP
DIMENSION: 16
EDGE_WEIGHT_TYPE: EXPLICIT
EDGE_WEIGHT_FORMAT: FULL_MATRIX
EDGE_WEIGHT_SECTION
0 1020 1020 1020 1020 1020 1020 1020 1020 8 41 35 1020 1020 61 20
1020 0 26 1020 1020 3 21 1020 1020 1020 1020 1020 24 1020 1020 1020
1020 26 0 33 1020 25 1020 13 1020 1020 1020 32 19 1020 1020 1020
1020 1020 33 0 1020 15 3 1020 30 1020 1020 33 1020 1020 1020 1020
1020 1020 1020 1020 0 1020 1020 1020 1020 1020 6 1020 1020 1020 71 28
1020 3 25 15 1020 0 18 1020 1020 1020 1020 1020 1020 1020 1020 1020
1020 21 1020 3 1020 18 0 1020 31 1020 1020 1020 1020 39 1020 1020
1020 1020 13 1020 1020 1020 1020 0 1020 16 1020 36 26 1020 1020 41
1020 1020 1020 30 1020 1020 31 1020 0 1020 1020 13 1020 10 1020 1020
8 1020 1020 1020 1020 1020 1020 16 1020 0 1020 35 1020 1020 1020 26
41 1020 1020 1020 6 1020 1020 1020 1020 1020 0 1020 1020 1020 66 26
35 1020 32 33 1020 1020 1020 36 13 35 1020 0 1020 20 38 1020
1020 24 19 1020 1020 1020 1020 26 1020 1020 1020 1020 0 1020 1020 66
1020 1020 1020 1020 1020 1020 39 1020 10 1020 1020 20 1020 0 25 1020
61 1020 1020 1020 71 1020 1020 1020 1020 1020 66 38 1020 25 0 1020
20 1020 1020 1020 28 1020 1020 41 1020 26 26 1020 66 1020 1020 0
EOF
